param set_len = 28;
param target := 232411801;
param values := [1] 2209209 [2] 19471977 [3] 20734802 [4] 29188406 [5] 8349380 [6] 27523532 [7] 12559230 [8] 8276468 [9] 30409110 [10] 31276919 [11] 32634423 [12] 22990611 [13] 9098847 [14] 15867022 [15] 25939870 [16] 5732258 [17] 21218179 [18] 31552690 [19] 29232053 [20] 2759955 [21] 6862761 [22] 25697594 [23] 12075653 [24] 13833168 [25] 21971765 [26] 7795286 [27] 9000820 [28] 8942925 ;
